[   0. 1100.  700.  800. 1400. 2100.  400.  800.  100.  500.  600. 1200.
 1300. 1300.  300.  900. 2100. 1000.  900. 2500. 1800.  700.  145.  151.
  159.  130.  128.  163.  146.  161.  142.  163.  148.  128.  156.  129.
  146.  164.  141.  147.  164.  129.  155.  139.    0. 1100.  700.  800.
 1400. 2100.  400.  800.  100.  500.  600. 1200. 1300. 1300.  300.  900.
 2100. 1000.  900. 2500. 1800.  700.]